c --- [ banner ] -------------------------------------------------------------
c 
c CaDiCaL Radically Simplified CDCL SAT Solver
c Copyright (c) 2016-2021 A. Biere, M. Fleury, N. Froleyks
c 
c Version 1.5.2 ca9bff05c11bde5eae4912f9932871d1527e61d8
c g++ (GCC) 9.3.0 -Wall -Wextra -O3 -DNDEBUG
c Sun May 1 02:23:23 EDT 2022 Linux gra-login1 3.10.0-1160.59.1.el7.x86_64 x86_64
c 
c --- [ limit ] --------------------------------------------------------------
c 
c setting conflict limit to 200000 conflicts (due to '200000')
c 
c --- [ parsing input ] ------------------------------------------------------
c 
c reading DIMACS file from '12.cubes823.adj'
c opening file to read '12.cubes823.adj'
c found 'p cnf 5320 924210' header
c parsed 924210 clauses in 6.92 seconds process time
c closing file '12.cubes823.adj'
c after reading 686668114 bytes 654.9 MB
c 
c --- [ options ] ------------------------------------------------------------
c 
c all options are set to their default value
c 
c --- [ solving ] ------------------------------------------------------------
c 
c time measured in process time since initialization
c 
c  seconds   reductions  redundant  irredundant
c          MB    restarts       trail      variables
c           level   conflicts       glue        remaining
c 
c *  6.92 694  0 0   0    0    0  0% 0 923580 3929 74%
c {  7.37 719  0 0   0    0    0  0% 0 923580 3929 74%
c i  8.87 747 47 0   9  135  110 45% 8 923580 3928 74%
c i  9.17 749 56 0  19  178  144 47% 18 923580 3918 74%
c i  9.18 749 57 0  19  180  145 46% 18 923580 3917 74%
c i  9.20 750 57 0  21  184  148 47% 18 923580 3916 74%
c i  9.31 751 66 0  25  200  162 47% 22 923580 3915 74%
c i  9.33 751 68 0  26  204  164 47% 24 923580 3914 74%
c i  9.34 751 69 0  27  206  164 47% 23 923580 3912 74%
c i  9.78 752 67 0  43  264  209 47% 23 923580 3911 74%
c i  9.85 752 67 0  47  282  224 47% 23 923580 3910 73%
c - 11.66 688 66 1  52  300  240 48% 23 85143 3910 73%
c i 11.73 688 62 1  52  351  283 49% 23 85143 3909 73%
c i 11.80 671 59 1  54  418  334 49% 22 85143 3908 73%
c i 11.98 671 54 1  70  662  518 50% 21 85143 3907 73%
c i 12.03 671 53 1  73  695  539 50% 21 85143 3906 73%
c - 12.55 704 66 2 118  904  617 49% 26 85133 3906 73%
c i 12.59 704 67 2 125  935  645 49% 27 85133 3905 73%
c } 12.63 704 70 2 138 1001  704 49% 30 85133 3905 73%
c [ 12.63 704  0 2 138 1001  704  0% 0 85133 3905 73%
c 
c  seconds   reductions  redundant  irredundant
c          MB    restarts       trail     variables
c           level   conflicts       glue       remaining
c 
c O 12.63 704  0 2 138 1002  704 27% 0 85133 3905 73%
c i 12.63 704  0 2 138 1002  704 27% 0 85133 3881 73%
c i 12.63 704  0 2 138 1003  704 27% 0 85133 3858 73%
c i 12.63 704  0 2 138 1005  704 28% 0 85133 3809 72%
c i 12.68 704 21 2 138 1122  786 56% 16 85133 3808 72%
c i 12.70 704 24 2 138 1224  860 56% 19 85133 3807 72%
c i 12.70 704 24 2 138 1252  874 57% 19 85133 3806 72%
c i 12.75 704 23 2 138 1641 1121 57% 19 85133 3805 72%
c i 12.76 704 23 2 138 1758 1192 57% 20 85133 3804 72%
c - 12.85 672 23 3 138 1804  985 57% 20 83913 3804 72%
c i 12.87 672 23 3 138 1825 1000 57% 20 83913 3803 71%
c i 12.98 672 23 3 139 2464 1426 56% 20 83913 3802 71%
c ] 13.02 672 23 3 139 2745 1611 57% 20 83913 3802 71%
c 1 13.02 672 23 3 139 2745 1611 57% 20 83913 3802 71%
c 
c --- [ writing output ] -----------------------------------------------------
c 
c writing simplified CNF to DIMACS file 'simp/12.cubes823.adj.simp1'
c * 13.02 672 23 3 139 2745 1611 57% 20 83913 3802 71%
c opening file to write 'simp/12.cubes823.adj.simp1'
c writing 'p cnf 5320 83907' header
c closing file 'simp/12.cubes823.adj.simp1'
c after writing 34023473 bytes 32.4 MB
c wrote 83907 clauses in 0.19 seconds process time
c 
c --- [ writing extension ] --------------------------------------------------
c 
c writing extension stack to 'simp/12.cubes823.adj.ext1'
c opening file to write 'simp/12.cubes823.adj.ext1'
c closing file 'simp/12.cubes823.adj.ext1'
c after writing 21654 bytes 0.0 MB
c wrote 1518 witnesses in 0.00 seconds process time
c 
c --- [ result ] -------------------------------------------------------------
c 
s SATISFIABLE
c 
c --- [ run-time profiling ] -------------------------------------------------
c 
c process time taken by individual solving procedures
c (percentage relative to process time for solving)
c 
c         6.92  113.38% parse
c         6.10  100.00% search
c         5.26   86.27% unstable
c         0.45    7.33% lucky
c         0.39    6.39% stable
c         0.00    0.00% simplify
c   =================================
c         6.10   46.18% solve
c 
c last line shows process time for solving
c (percentage relative to total process time)
c 
c --- [ statistics ] ---------------------------------------------------------
c 
c chronological:               688        25.06 %  of conflicts
c conflicts:                  2745       449.88    per second
c decisions:                 17865      2927.94    per second
c fixed:                      1518        28.53 %  of all variables
c learned:                    2680        97.63 %  per conflict
c learned_lits:             495901       100.00 %  learned literals
c minimized:                     0         0.00 %  learned literals
c shrunken:                 267854        54.01 %  learned literals
c minishrunken:              57926        11.68 %  learned literals
c propagations:             627774         0.10 M  per second
c reduced:                     321        11.69 %  per conflict
c rephased:                      1      2745.00    interval
c restarts:                    139        19.75    interval
c stabilizing:                   1        63.53 %  of conflicts
c subsumed:                    721         0.04 %  of all clauses
c 
c seconds are measured in process time for solving
c 
c --- [ resources ] ----------------------------------------------------------
c 
c total process time since initialization:        13.21    seconds
c total real time since initialization:           13.28    seconds
c maximum resident set size of process:          752.51    MB
c 
c --- [ shutting down ] ------------------------------------------------------
c 
c exit 10
c --- [ banner ] -------------------------------------------------------------
c 
c CaDiCaL Radically Simplified CDCL SAT Solver
c Copyright (c) 2016-2021 A. Biere, M. Fleury, N. Froleyks
c 
c Version 1.5.2 ca9bff05c11bde5eae4912f9932871d1527e61d8
c g++ (GCC) 9.3.0 -Wall -Wextra -O3 -DNDEBUG
c Sun May 1 02:23:23 EDT 2022 Linux gra-login1 3.10.0-1160.59.1.el7.x86_64 x86_64
c 
c --- [ limit ] --------------------------------------------------------------
c 
c setting conflict limit to 200000 conflicts (due to '200000')
c 
c --- [ parsing input ] ------------------------------------------------------
c 
c reading DIMACS file from 'simp/12.cubes823.adj.simp1'
c opening file to read 'simp/12.cubes823.adj.simp1'
c found 'p cnf 5320 83907' header
c parsed 83907 clauses in 0.32 seconds process time
c closing file 'simp/12.cubes823.adj.simp1'
c after reading 34023473 bytes 32.4 MB
c 
c --- [ options ] ------------------------------------------------------------
c 
c all options are set to their default value
c 
c --- [ solving ] ------------------------------------------------------------
c 
c time measured in process time since initialization
c 
c  seconds  reductions  redundant  irredundant
c         MB    restarts       trail     variables
c          level   conflicts       glue       remaining
c 
c *  0.32 37  0 0   0    0    0  0% 0 83907 3773 71%
c {  0.35 40  0 0   0    0    0  0% 0 83907 3773 71%
c -  0.79 50 85 1  53  301  255 20% 25 83907 3773 71%
c i  0.86 50 78 1  67  385  301 19% 26 83907 3772 71%
c i  0.97 50 76 1  93  505  395 20% 31 83907 3771 71%
c -  1.25 78 64 2 128  902  598 22% 30 83901 3771 71%
c }  1.28 78 61 2 129 1002  664 21% 30 83901 3771 71%
c [  1.28 78  0 2 129 1002  664  0% 0 83901 3771 71%
c O  1.28 78 32 2 129 1003  665  2% 1 83901 3771 71%
c i  1.28 78 30 2 129 1005  666  2% 1 83901 3746 70%
c i  1.28 78 29 2 129 1006  666  1% 0 83901 3722 70%
c -  1.51 77 69 3 129 1811  895 29% 19 83365 3722 70%
c ]  1.79 77 42 3 130 3003 1639 29% 19 83365 3722 70%
c {  1.79 77 61 3 130 3003 1639 21% 30 83365 3722 70%
c F  1.85 76 61 3 131 3004 1640 33% 30 83365 3722 70%
c -  1.90 105 61 4 132 3012 1186 40% 29 83365 3722 70%
c i  1.91 105 60 4 132 3023 1195 39% 29 83365 3721 70%
c -  2.23 105 38 5 134 4512 1530 37% 21 83362 3721 70%
c d  2.36 105 35 5 134 5000 1839 36% 21 74968 3715 70%
c 2  2.38 105 35 5 134 5000 3830 36% 21 74909 3715 70%
c 
c  seconds   reductions   redundant   irredundant
c          MB    restarts        trail      variables
c           level   conflicts        glue        remaining
c 
c p  3.40 105 35 5 134 5000 10681 36% 21 74909 3675 69%
c d  3.45 105 35 5 134 5000 10599 36% 21 62296 3673 69%
c #  3.63 105 31 5 140 6005 11259 36% 19 62296 3673 69%
c -  3.84 105 32 6 201 6312 2283 36% 20 62296 3673 69%
c }  4.08 105 32 6 243 7006 2767 36% 20 62296 3673 69%
c [  4.08 105 42 6 243 7006 2767 41% 19 62296 3673 69%
c -  4.32 105 38 7 244 8412 2696 39% 22 62296 3673 69%
c s  4.44 105 36 7 244 8952 3019 38% 22 61010 3673 69%
c v  4.82 106 36 7 244 8952 3019 38% 22 60973 3673 69%
c t  4.84 106 36 7 244 8952 3009 38% 22 60897 3673 69%
c e  4.94 106 36 7 244 8952 2807 38% 22 55340 861 16%
c s  4.98 106 36 7 244 8952 2807 38% 22 55242 861 16%
c I  5.21 106 34 7 245 10006 3486 72% 22 55242 861 16%
c -  5.38 106 41 8 246 10814 3034 70% 27 55242 861 16%
c -  5.88 106 49 9 248 13516 3453 69% 35 55242 861 16%
c p  6.50 106 51 9 248 15000 7395 69% 37 55242 859 16%
c ]  6.52 106 51 9 248 15006 7401 69% 37 55242 859 16%
c {  6.52 106 32 9 248 15006 7401 154% 20 55242 859 16%
c B  6.53 106 32 9 249 15007 7402 154% 20 55242 859 16%
c -  6.80 117 29 10 265 16520 4074 130% 19 55236 859 16%
c 
c  seconds   reductions    redundant    irredundant
c          MB     restarts        trail       variables
c           level     conflicts        glue       remaining
c 
c -  7.32 117 27 11 390 19824 3957 107% 19 55236 859 16%
c W  7.55 118 26 11 390 21010 4619 103% 18 55236 859 16%
c -  7.96 118 25 12 490 23427 4160 96% 18 55236 859 16%
c }  8.30 118 25 12 595 25271 5244 93% 18 55236 859 16%
c 1  8.30 118 25 12 595 25271 5244 93% 18 55236 859 16%
c 
c --- [ writing output ] -----------------------------------------------------
c 
c writing simplified CNF to DIMACS file 'simp/12.cubes823.adj.simp2'
c *  8.30 118 25 12 595 25271 5244 93% 18 55236 859 16%
c opening file to write 'simp/12.cubes823.adj.simp2'
c writing 'p cnf 5320 55236' header
c closing file 'simp/12.cubes823.adj.simp2'
c after writing 23375117 bytes 22.3 MB
c wrote 55236 clauses in 0.12 seconds process time
c 
c --- [ writing extension ] --------------------------------------------------
c 
c writing extension stack to 'simp/12.cubes823.adj.ext2'
c opening file to write 'simp/12.cubes823.adj.ext2'
c closing file 'simp/12.cubes823.adj.ext2'
c after writing 147008 bytes 0.1 MB
c wrote 6065 witnesses in 0.00 seconds process time
c 
c --- [ result ] -------------------------------------------------------------
c 
s SATISFIABLE
c 
c --- [ run-time profiling ] -------------------------------------------------
c 
c process time taken by individual solving procedures
c (percentage relative to process time for solving)
c 
c         5.79   72.58% search
c         3.75   47.03% unstable
c         2.19   27.42% simplify
c         1.92   24.06% stable
c         1.39   17.37% probe
c         0.39    4.84% vivify
c         0.32    4.03% parse
c         0.19    2.34% elim
c         0.09    1.18% walk
c         0.06    0.81% subsume
c         0.03    0.35% ternary
c         0.02    0.30% lucky
c   =================================
c         7.98   94.70% solve
c 
c last line shows process time for solving
c (percentage relative to total process time)
c 
c --- [ statistics ] ---------------------------------------------------------
c 
c chronological:              5030        19.90 %  of conflicts
c conflicts:                 25271      3167.29    per second
c decisions:                 60551      7589.05    per second
c eliminated:                 2812        52.86 %  of all variables
c fixed:                        94         1.77 %  of all variables
c learned:                   24638        97.50 %  per conflict
c learned_lits:            4363288       100.00 %  learned literals
c minimized:                     0         0.00 %  learned literals
c shrunken:                2847148        65.25 %  learned literals
c minishrunken:             290346         6.65 %  learned literals
c propagations:            3008077         0.38 M  per second
c reduced:                   11744        46.47 %  per conflict
c rephased:                      6      4211.83    interval
c restarts:                    595        42.47    interval
c stabilizing:                   2        39.58 %  of conflicts
c substituted:                   8         0.15 %  of all variables
c subsumed:                   9103         3.50 %  of all clauses
c strengthened:               2195         0.84 %  of all clauses
c ternary:                    2742         0.56 %  of resolved
c vivified:                     40         0.02 %  of all clauses
c walked:                        1     25271.00    interval
c weakened:                   5971         2.99    average size
c 
c seconds are measured in process time for solving
c 
c --- [ resources ] ----------------------------------------------------------
c 
c total process time since initialization:         8.43    seconds
c total real time since initialization:            8.47    seconds
c maximum resident set size of process:          117.56    MB
c 
c --- [ shutting down ] ------------------------------------------------------
c 
c exit 10
WARNING! DIMACS header mismatch: wrong number of variables.
============================[ Problem Statistics ]=============================
|                                                                             |
|  Number of variables:          3176                                         |
|  Number of clauses:           55240                                         |
|  Parse time:                   0.31 s                                       |
|  Simplification time:          0.01 s                                       |
|                                                                             |
============================[ Search Statistics ]====================================================
| Conflicts |          ORIGINAL         |          LEARNT          | Num Sols |      SUBGRAPHS      |
|           |    Vars  Clauses Literals |    Limit  Clauses Lit/Cl |          | Canonical Noncanon. |
=====================================================================================================
|       101 |    3089    55241  5103167 |     2000      101    136 |        0 |        18         1 |
|       259 |    3089    55249  5103287 |     2000      259    139 |        0 |        22         9 |
|       484 |    3089    55249  5103287 |     2000      484    121 |        0 |        29         9 |
|       824 |    3089    55252  5103457 |     2000      824    124 |        0 |        34        12 |
|      1341 |    3089    55263  5104030 |     2000     1341    119 |        0 |        39        23 |
|      2212 |    3089    55375  5105679 |     3600     1212     68 |        0 |       102       135 |
|      3389 |    3089    55413  5106495 |     3600     2389     85 |        0 |       125       173 |
|      5137 |    3089    55453  5107139 |     5000     2337     59 |        0 |       153       213 |
|      7864 |    3089    55618  5109961 |     6306     2570     39 |        0 |       217       378 |
|     11966 |    3089    55876  5113118 |     7554     3520     41 |        0 |       291       636 |
|     17872 |    3089    56016  5115163 |     8779     5651     56 |        0 |       326       776 |
|     26683 |    3089    56178  5117152 |    11198     5081     34 |        0 |       392       938 |
|     39991 |    3089    56512  5122299 |    13609     6600     34 |        0 |       466      1272 |
|     59943 |    3089    57003  5129355 |    16005    12348     60 |        0 |       578      1763 |
|     89345 |    3089    57213  5132509 |    19616    15961     55 |        0 |       639      1973 |
|    133713 |    3089    57792  5140501 |    24408    17521     52 |        0 |       840      2552 |
|    201096 |    3049    39525  3708541 |    28595    16091     64 |        0 |      1189      4251 |
|    301061 |    3049    40964  3733783 |    36352    35813     68 |        0 |      1509      5690 |
|    452342 |    3042    43503  3779859 |    45180    23922     51 |        0 |      2392      9182 |
=====================================================================================================
Number of solutions   : 0
Canonical subgraphs   : 2965           (41 /sec)
          order  3    : 1              (200000 /sec)
          order  4    : 1              (500000 /sec)
          order  5    : 1              (333333 /sec)
          order  6    : 1              (62500 /sec)
          order  7    : 1              (10309 /sec)
          order  8    : 2              (1590 /sec)
          order  9    : 6              (369 /sec)
          order 10    : 20             (194 /sec)
          order 11    : 41             (152 /sec)
          order 12    : 120            (122 /sec)
          order 13    : 303            (76 /sec)
          order 14    : 542            (49 /sec)
          order 15    : 1669           (36 /sec)
          order 16    : 251            (27 /sec)
          order 17    : 5              (17 /sec)
          order 18    : 1              (20 /sec)
          order 19    : 0              (-nan /sec)
          order 20    : 0              (-nan /sec)
          order 21    : 0              (-nan /sec)
Noncanonical subgraphs: 11870          (1891 /sec)
          order  3    : 0              (-nan /sec)
          order  4    : 0              (-nan /sec)
          order  5    : 0              (-nan /sec)
          order  6    : 0              (-nan /sec)
          order  7    : 0              (-nan /sec)
          order  8    : 0              (-nan /sec)
          order  9    : 0              (-nan /sec)
          order 10    : 0              (-nan /sec)
          order 11    : 0              (-nan /sec)
          order 12    : 0              (-nan /sec)
          order 13    : 1073           (18870 /sec)
          order 14    : 2017           (10496 /sec)
          order 15    : 8148           (1641 /sec)
          order 16    : 591            (771 /sec)
          order 17    : 40             (140 /sec)
          order 18    : 1              (81 /sec)
          order 19    : 0              (-nan /sec)
          order 20    : 0              (-nan /sec)
Canonicity checking   : 72.0169 s
Noncanonicity checking: 6.27756 s
Total canonicity time : 78.2945 s
database reductions   : 44
restarts              : 1436
conflicts             : 667712         (4033 /sec)
decisions             : 861385         (0.00 % random) (5202 /sec)
propagations          : 29949271       (180875 /sec)
conflict literals     : 55800828       (58.27 % deleted)
actual reward         : 0.278279
Memory used           : 116.00 MB
CPU time              : 165.58 s

UNSATISFIABLE
